I costi ed i termini noti sono:
c_1=-10.0
c_2=-1.0
c_3=0.0
c_4=0.0
c_5=0.0
b_1=10.0
b_2=6.0
b_3=8.0
I coefficienti sono:
a[1][1]=1.0 
a[1][2]=1.0 
a[1][3]=1.0 
a[1][4]=0.0 
a[1][5]=0.0 
a[2][1]=1.0 
a[2][2]=0.0 
a[2][3]=0.0 
a[2][4]=1.0 
a[2][5]=0.0 
a[3][1]=0.5 
a[3][2]=1.0 
a[3][3]=0.0 
a[3][4]=0.0 
a[3][5]=1.0 
Tried aggregator 1 time.
LP Presolve eliminated 1 rows and 3 columns.
Reduced LP has 2 rows, 2 columns, and 4 nonzeros.
Presolve time = 0.00 sec. (0.00 ticks)

Iteration log . . .
Iteration:     1   Dual infeasibility =             0.000000

Solution status = Optimal

Il valore di funzione obiettivo e':-64.0
Il valore delle variabili e':
x[1]=6.0
x[2]=4.0
x[3]=0.0
x[4]=0.0
x[5]=1.0
